(set-logic ALL)
(declare-const BAV1 Bool)
(declare-const BAV2 Bool)
(declare-const BAV3 Bool)
(declare-const BAV4 Bool)
(declare-const BAV5 Bool)
(declare-const BAV6 Bool)
(declare-const BAV7 Bool)
(declare-const BAV8 Bool)
(declare-const BAV9 Bool)
(declare-const BAV10 Bool)
(declare-const BAV11 Bool)
(declare-const BAV12 Bool)
(declare-const BAV13 Bool)
(declare-const BAV14 Bool)
(declare-const BAV15 Bool)
(declare-const BAV16 Bool)
(declare-const BAV17 Bool)
(declare-const BAV18 Bool)
(declare-const BAV19 Bool)
(declare-const BAV20 Bool)
(declare-const BAV21 Bool)
(declare-const BAV22 Bool)
(declare-const BAV23 Bool)
(declare-const BAV24 Bool)
(declare-const BAV25 Bool)
(declare-const BAV26 Bool)
(declare-const BAV27 Bool)
(declare-const BAV28 Bool)
(declare-const BAV29 Bool)
(declare-const BAV30 Bool)
(declare-const BAV31 Bool)
(declare-const BAV32 Bool)
(declare-const BAV33 Bool)
(declare-const BAV34 Bool)
(declare-const BAV35 Bool)
(declare-const BAV36 Bool)
(declare-const BAV37 Bool)
(declare-const BAV38 Bool)
(declare-const BAV39 Bool)
(declare-const BAV40 Bool)
(declare-const BAV41 Bool)
(declare-const BAV42 Bool)
(declare-const BAV43 Bool)
(declare-const BAV44 Bool)
(declare-const BAV45 Bool)
(declare-const BAV46 Bool)
(declare-const BAV47 Bool)
(declare-const BAV48 Bool)
(declare-const BAV49 Bool)
(declare-const BAV50 Bool)
(declare-const BAV51 Bool)
(declare-const BAV52 Bool)
(declare-const BAV53 Bool)
(declare-const BAV54 Bool)
(declare-const BAV55 Bool)
(declare-const BAV56 Bool)
(declare-const BAV57 Bool)
(declare-const BAV58 Bool)
(declare-const BAV59 Bool)
(declare-const BAV60 Bool)
(declare-const BAV61 Bool)
(declare-const BAV62 Bool)
(declare-const BAV63 Bool)
(declare-const BAV64 Bool)
(declare-const BAV65 Bool)
(declare-const BAV66 Bool)
(declare-const BAV67 Bool)
(declare-const BAV68 Bool)
(declare-const BAV69 Bool)
(declare-const BAV70 Bool)
(declare-const BAV71 Bool)
(declare-const BAV72 Bool)
(declare-const BAV73 Bool)
(declare-const BAV74 Bool)
(declare-const BAV75 Bool)
(declare-const BAV76 Bool)
(declare-const BAV77 Bool)
(declare-const BAV78 Bool)
(declare-const BAV79 Bool)
(declare-const BAV80 Bool)
(declare-const BAV81 Bool)
(declare-const BAV82 Bool)
(declare-const BAV83 Bool)
(declare-const BAV84 Bool)
(declare-const BAV85 Bool)
(declare-const BAV86 Bool)
(declare-const BAV87 Bool)
(declare-const BAV88 Bool)
(declare-const BAV89 Bool)
(declare-const BAV90 Bool)
(declare-const BAV91 Bool)
(declare-const BAV92 Bool)
(declare-const BAV93 Bool)
(declare-const BAV94 Bool)
(declare-const BAV95 Bool)
(declare-const BAV96 Bool)
(declare-const BAV97 Bool)
(declare-const BAV98 Bool)
(declare-const BAV99 Bool)
(declare-const BAV100 Bool)
(declare-const BAV101 Bool)
(declare-const BAV102 Bool)
(declare-const BAV103 Bool)
(declare-const BAV104 Bool)
(declare-const BAV105 Bool)
(declare-const BAV106 Bool)
(declare-const BAV107 Bool)
(declare-const BAV108 Bool)
(declare-const BAV109 Bool)
(declare-const BAV110 Bool)
(declare-const BAV111 Bool)
(declare-const BAV112 Bool)
(declare-const BAV113 Bool)
(declare-const BAV114 Bool)
(declare-const BAV115 Bool)
(declare-const BAV116 Bool)
(declare-const BAV117 Bool)
(declare-const BAV118 Bool)
(declare-const BAV119 Bool)
(declare-const BAV120 Bool)
(declare-const BAV121 Bool)
(declare-const BAV122 Bool)
(declare-const BAV123 Bool)
(declare-const BAV124 Bool)
(declare-const BAV125 Bool)
(declare-const BAV126 Bool)
(declare-const BAV127 Bool)
(declare-const BAV128 Bool)
(declare-const BAV129 Bool)
(declare-const BAV130 Bool)
(declare-const BAV131 Bool)
(declare-const BAV132 Bool)
(declare-const BAV133 Bool)
(declare-const BAV134 Bool)
(declare-const BAV135 Bool)
(declare-const BAV136 Bool)
(declare-const BAV137 Bool)
(declare-const BAV138 Bool)
(declare-const BAV139 Bool)
(declare-const BAV140 Bool)
(declare-const BAV141 Bool)
(declare-const BAV142 Bool)
(declare-const BAV143 Bool)
(declare-const BAV144 Bool)
(declare-const BAV145 Bool)
(declare-const BAV146 Bool)
(declare-const BAV147 Bool)
(declare-const BAV148 Bool)
(declare-const BAV149 Bool)
(declare-const BAV150 Bool)
(declare-const BAV151 Bool)
(declare-const BAV152 Bool)
(declare-const BAV153 Bool)
(declare-const BAV154 Bool)
(declare-const BAV155 Bool)
(declare-const BAV156 Bool)
(declare-const BAV157 Bool)
(declare-const BAV158 Bool)
(declare-const BAV159 Bool)
(declare-const BAV160 Bool)
(declare-const BAV161 Bool)
(declare-const BAV162 Bool)
(declare-const BAV163 Bool)
(declare-const BAV164 Bool)
(declare-const BAV165 Bool)
(declare-const BAV166 Bool)
(declare-const BAV167 Bool)
(declare-const BAV168 Bool)
(declare-const BAV169 Bool)
(declare-const BAV170 Bool)
(declare-const BAV171 Bool)
(declare-const BAV172 Bool)
(declare-const BAV173 Bool)
(declare-const BAV174 Bool)
(declare-const BAV175 Bool)
(declare-const BAV176 Bool)
(declare-const BAV177 Bool)
(declare-const BAV178 Bool)
(declare-const BAV179 Bool)
(declare-const BAV180 Bool)
(declare-const BAV181 Bool)
(declare-const BAV182 Bool)
(declare-const BAV183 Bool)
(declare-const BAV184 Bool)
(declare-const BAV185 Bool)
(declare-const BAV186 Bool)
(declare-const BAV187 Bool)
(declare-const BAV188 Bool)
(declare-const BAV189 Bool)
(declare-const BAV190 Bool)
(declare-const BAV191 Bool)
(declare-const BAV192 Bool)
(declare-const BAV193 Bool)
(declare-fun x0 () Bool)
(declare-fun x1 () Bool)
(declare-fun x2 () Bool)
(declare-fun x3 () Bool)
(declare-fun x4 () Bool)
(assert (not (and (or (and (and (and (or (not (and (not x4) (and x2 x4))) (not (or (or x2 x2) (or x0 x2)))) (not (and (or (or x2 x3) (or x0 x2)) (and (not x1) (not x1))))) (not (or (and (and (or x0 x4) (or x1 x1)) (and (and x3 x0) (not x1))) (or (not (and x3 x3)) (not (and x3 x1)))))) (or (not (not (not (not (and x3 x2))))) (not (or (or (not (or x0 x3)) (and (or x2 x2) (and x1 x0))) (not (and (and x2 x2) (or x0 x0))))))) (and (not (or (not (not (or (or x2 x3) (or x0 x4)))) (or (or (not (not x4)) (not (and x3 x3))) (and (not (not x0)) (and (not x2) (not x3)))))) (and (and (not (not (or (and x0 x1) (or x3 x4)))) (or (and (or (and x1 x2) (or x4 x1)) (or (or x4 x3) (not x4))) (not (and (not x1) (and x2 x1))))) (not (or (not (and (or x4 x0) (and x3 x2))) (not (and (and x0 x4) (not x0)))))))) (or (not (or (or (and (or (or (and x1 x1) (or x2 x1)) (and (not x3) (or x3 x1))) (and (and (and x3 x2) (and x0 x4)) (or (or x0 x4) (or x2 x4)))) (and (not (and (and x1 x2) (not x3))) (or (and (not x2) (or x3 x0)) (or (not x0) (not x2))))) (and (and (and (not (and x3 x3)) (not (not x0))) (or (or (and x0 x1) (not x2)) (not (or x3 x0)))) (or (and (or (and x0 x2) (and x0 x3)) (and (not x3) (or x0 x4))) (and (not (and x2 x1)) (not (not x1))))))) (and (not (not (and (not (or (not x4) (and x0 x0))) (or (not (not x0)) (or (and x1 x3) (and x2 x0)))))) (or (and (and (not (or (and x2 x1) (and x4 x1))) (and (not (and x0 x3)) (and (or x3 x2) (and x1 x4)))) (and (and (or (or x0 x1) (not x0)) (and (and x2 x3) (not x2))) (not (not (or x2 x3))))) (and (and (and (and (or x2 x1) (or x1 x4)) (and (and x2 x4) (or x1 x4))) (or (and (and x2 x0) (not x0)) (and (and x3 x1) (not x0)))) (or (not (or (not x4) (or x1 x2))) (and (or (not x2) (not x3)) (and (or x1 x2) (and x1 x1)))))))))))
(assert (= BAV1 (and (or (and (and (and (or (not (and (not x4) (and x2 x4))) (not (or (or x2 x2) (or x0 x2)))) (not (and (or (or x2 x3) (or x0 x2)) (and (not x1) (not x1))))) (not (or (and (and (or x0 x4) (or x1 x1)) (and (and x3 x0) (not x1))) (or (not (and x3 x3)) (not (and x3 x1)))))) (or (not (not (not (not (and x3 x2))))) (not (or (or (not (or x0 x3)) (and (or x2 x2) (and x1 x0))) (not (and (and x2 x2) (or x0 x0))))))) (and (not (or (not (not (or (or x2 x3) (or x0 x4)))) (or (or (not (not x4)) (not (and x3 x3))) (and (not (not x0)) (and (not x2) (not x3)))))) (and (and (not (not (or (and x0 x1) (or x3 x4)))) (or (and (or (and x1 x2) (or x4 x1)) (or (or x4 x3) (not x4))) (not (and (not x1) (and x2 x1))))) (not (or (not (and (or x4 x0) (and x3 x2))) (not (and (and x0 x4) (not x0)))))))) (or (not (or (or (and (or (or (and x1 x1) (or x2 x1)) (and (not x3) (or x3 x1))) (and (and (and x3 x2) (and x0 x4)) (or (or x0 x4) (or x2 x4)))) (and (not (and (and x1 x2) (not x3))) (or (and (not x2) (or x3 x0)) (or (not x0) (not x2))))) (and (and (and (not (and x3 x3)) (not (not x0))) (or (or (and x0 x1) (not x2)) (not (or x3 x0)))) (or (and (or (and x0 x2) (and x0 x3)) (and (not x3) (or x0 x4))) (and (not (and x2 x1)) (not (not x1))))))) (and (not (not (and (not (or (not x4) (and x0 x0))) (or (not (not x0)) (or (and x1 x3) (and x2 x0)))))) (or (and (and (not (or (and x2 x1) (and x4 x1))) (and (not (and x0 x3)) (and (or x3 x2) (and x1 x4)))) (and (and (or (or x0 x1) (not x0)) (and (and x2 x3) (not x2))) (not (not (or x2 x3))))) (and (and (and (and (or x2 x1) (or x1 x4)) (and (and x2 x4) (or x1 x4))) (or (and (and x2 x0) (not x0)) (and (and x3 x1) (not x0)))) (or (not (or (not x4) (or x1 x2))) (and (or (not x2) (not x3)) (and (or x1 x2) (and x1 x1)))))))))))
(assert (= BAV2 (or (and (and (and (or (not (and (not x4) (and x2 x4))) (not (or (or x2 x2) (or x0 x2)))) (not (and (or (or x2 x3) (or x0 x2)) (and (not x1) (not x1))))) (not (or (and (and (or x0 x4) (or x1 x1)) (and (and x3 x0) (not x1))) (or (not (and x3 x3)) (not (and x3 x1)))))) (or (not (not (not (not (and x3 x2))))) (not (or (or (not (or x0 x3)) (and (or x2 x2) (and x1 x0))) (not (and (and x2 x2) (or x0 x0))))))) (and (not (or (not (not (or (or x2 x3) (or x0 x4)))) (or (or (not (not x4)) (not (and x3 x3))) (and (not (not x0)) (and (not x2) (not x3)))))) (and (and (not (not (or (and x0 x1) (or x3 x4)))) (or (and (or (and x1 x2) (or x4 x1)) (or (or x4 x3) (not x4))) (not (and (not x1) (and x2 x1))))) (not (or (not (and (or x4 x0) (and x3 x2))) (not (and (and x0 x4) (not x0))))))))))
(assert (= BAV3 (and (and (and (or (not (and (not x4) (and x2 x4))) (not (or (or x2 x2) (or x0 x2)))) (not (and (or (or x2 x3) (or x0 x2)) (and (not x1) (not x1))))) (not (or (and (and (or x0 x4) (or x1 x1)) (and (and x3 x0) (not x1))) (or (not (and x3 x3)) (not (and x3 x1)))))) (or (not (not (not (not (and x3 x2))))) (not (or (or (not (or x0 x3)) (and (or x2 x2) (and x1 x0))) (not (and (and x2 x2) (or x0 x0)))))))))
(assert (= BAV4 (and (and (or (not (and (not x4) (and x2 x4))) (not (or (or x2 x2) (or x0 x2)))) (not (and (or (or x2 x3) (or x0 x2)) (and (not x1) (not x1))))) (not (or (and (and (or x0 x4) (or x1 x1)) (and (and x3 x0) (not x1))) (or (not (and x3 x3)) (not (and x3 x1))))))))
(assert (= BAV5 (and (or (not (and (not x4) (and x2 x4))) (not (or (or x2 x2) (or x0 x2)))) (not (and (or (or x2 x3) (or x0 x2)) (and (not x1) (not x1)))))))
(assert (= BAV6 (or (not (and (not x4) (and x2 x4))) (not (or (or x2 x2) (or x0 x2))))))
(assert (= BAV7 (and (not x4) (and x2 x4))))
(assert (= BAV8 (and x2 x4)))
(assert (= BAV9 (or (or x2 x2) (or x0 x2))))
(assert (= BAV10 (or x2 x2)))
(assert (= BAV11 (or x0 x2)))
(assert (= BAV12 (and (or (or x2 x3) (or x0 x2)) (and (not x1) (not x1)))))
(assert (= BAV13 (or (or x2 x3) (or x0 x2))))
(assert (= BAV14 (or x2 x3)))
(assert (= BAV15 (or x0 x2)))
(assert (= BAV16 (and (not x1) (not x1))))
(assert (= BAV17 (or (and (and (or x0 x4) (or x1 x1)) (and (and x3 x0) (not x1))) (or (not (and x3 x3)) (not (and x3 x1))))))
(assert (= BAV18 (and (and (or x0 x4) (or x1 x1)) (and (and x3 x0) (not x1)))))
(assert (= BAV19 (and (or x0 x4) (or x1 x1))))
(assert (= BAV20 (or x0 x4)))
(assert (= BAV21 (or x1 x1)))
(assert (= BAV22 (and (and x3 x0) (not x1))))
(assert (= BAV23 (and x3 x0)))
(assert (= BAV24 (or (not (and x3 x3)) (not (and x3 x1)))))
(assert (= BAV25 (and x3 x3)))
(assert (= BAV26 (and x3 x1)))
(assert (= BAV27 (or (not (not (not (not (and x3 x2))))) (not (or (or (not (or x0 x3)) (and (or x2 x2) (and x1 x0))) (not (and (and x2 x2) (or x0 x0))))))))
(assert (= BAV28 (and x3 x2)))
(assert (= BAV29 (or (or (not (or x0 x3)) (and (or x2 x2) (and x1 x0))) (not (and (and x2 x2) (or x0 x0))))))
(assert (= BAV30 (or (not (or x0 x3)) (and (or x2 x2) (and x1 x0)))))
(assert (= BAV31 (or x0 x3)))
(assert (= BAV32 (and (or x2 x2) (and x1 x0))))
(assert (= BAV33 (or x2 x2)))
(assert (= BAV34 (and x1 x0)))
(assert (= BAV35 (and (and x2 x2) (or x0 x0))))
(assert (= BAV36 (and x2 x2)))
(assert (= BAV37 (or x0 x0)))
(assert (= BAV38 (and (not (or (not (not (or (or x2 x3) (or x0 x4)))) (or (or (not (not x4)) (not (and x3 x3))) (and (not (not x0)) (and (not x2) (not x3)))))) (and (and (not (not (or (and x0 x1) (or x3 x4)))) (or (and (or (and x1 x2) (or x4 x1)) (or (or x4 x3) (not x4))) (not (and (not x1) (and x2 x1))))) (not (or (not (and (or x4 x0) (and x3 x2))) (not (and (and x0 x4) (not x0)))))))))
(assert (= BAV39 (or (not (not (or (or x2 x3) (or x0 x4)))) (or (or (not (not x4)) (not (and x3 x3))) (and (not (not x0)) (and (not x2) (not x3)))))))
(assert (= BAV40 (or (or x2 x3) (or x0 x4))))
(assert (= BAV41 (or x2 x3)))
(assert (= BAV42 (or x0 x4)))
(assert (= BAV43 (or (or (not (not x4)) (not (and x3 x3))) (and (not (not x0)) (and (not x2) (not x3))))))
(assert (= BAV44 (or (not (not x4)) (not (and x3 x3)))))
(assert (= BAV45 (and x3 x3)))
(assert (= BAV46 (and (not (not x0)) (and (not x2) (not x3)))))
(assert (= BAV47 (and (not x2) (not x3))))
(assert (= BAV48 (and (and (not (not (or (and x0 x1) (or x3 x4)))) (or (and (or (and x1 x2) (or x4 x1)) (or (or x4 x3) (not x4))) (not (and (not x1) (and x2 x1))))) (not (or (not (and (or x4 x0) (and x3 x2))) (not (and (and x0 x4) (not x0))))))))
(assert (= BAV49 (and (not (not (or (and x0 x1) (or x3 x4)))) (or (and (or (and x1 x2) (or x4 x1)) (or (or x4 x3) (not x4))) (not (and (not x1) (and x2 x1)))))))
(assert (= BAV50 (or (and x0 x1) (or x3 x4))))
(assert (= BAV51 (and x0 x1)))
(assert (= BAV52 (or x3 x4)))
(assert (= BAV53 (or (and (or (and x1 x2) (or x4 x1)) (or (or x4 x3) (not x4))) (not (and (not x1) (and x2 x1))))))
(assert (= BAV54 (and (or (and x1 x2) (or x4 x1)) (or (or x4 x3) (not x4)))))
(assert (= BAV55 (or (and x1 x2) (or x4 x1))))
(assert (= BAV56 (and x1 x2)))
(assert (= BAV57 (or x4 x1)))
(assert (= BAV58 (or (or x4 x3) (not x4))))
(assert (= BAV59 (or x4 x3)))
(assert (= BAV60 (and (not x1) (and x2 x1))))
(assert (= BAV61 (and x2 x1)))
(assert (= BAV62 (or (not (and (or x4 x0) (and x3 x2))) (not (and (and x0 x4) (not x0))))))
(assert (= BAV63 (and (or x4 x0) (and x3 x2))))
(assert (= BAV64 (or x4 x0)))
(assert (= BAV65 (and x3 x2)))
(assert (= BAV66 (and (and x0 x4) (not x0))))
(assert (= BAV67 (and x0 x4)))
(assert (= BAV68 (or (not (or (or (and (or (or (and x1 x1) (or x2 x1)) (and (not x3) (or x3 x1))) (and (and (and x3 x2) (and x0 x4)) (or (or x0 x4) (or x2 x4)))) (and (not (and (and x1 x2) (not x3))) (or (and (not x2) (or x3 x0)) (or (not x0) (not x2))))) (and (and (and (not (and x3 x3)) (not (not x0))) (or (or (and x0 x1) (not x2)) (not (or x3 x0)))) (or (and (or (and x0 x2) (and x0 x3)) (and (not x3) (or x0 x4))) (and (not (and x2 x1)) (not (not x1))))))) (and (not (not (and (not (or (not x4) (and x0 x0))) (or (not (not x0)) (or (and x1 x3) (and x2 x0)))))) (or (and (and (not (or (and x2 x1) (and x4 x1))) (and (not (and x0 x3)) (and (or x3 x2) (and x1 x4)))) (and (and (or (or x0 x1) (not x0)) (and (and x2 x3) (not x2))) (not (not (or x2 x3))))) (and (and (and (and (or x2 x1) (or x1 x4)) (and (and x2 x4) (or x1 x4))) (or (and (and x2 x0) (not x0)) (and (and x3 x1) (not x0)))) (or (not (or (not x4) (or x1 x2))) (and (or (not x2) (not x3)) (and (or x1 x2) (and x1 x1))))))))))
(assert (= BAV69 (or (or (and (or (or (and x1 x1) (or x2 x1)) (and (not x3) (or x3 x1))) (and (and (and x3 x2) (and x0 x4)) (or (or x0 x4) (or x2 x4)))) (and (not (and (and x1 x2) (not x3))) (or (and (not x2) (or x3 x0)) (or (not x0) (not x2))))) (and (and (and (not (and x3 x3)) (not (not x0))) (or (or (and x0 x1) (not x2)) (not (or x3 x0)))) (or (and (or (and x0 x2) (and x0 x3)) (and (not x3) (or x0 x4))) (and (not (and x2 x1)) (not (not x1))))))))
(assert (= BAV70 (or (and (or (or (and x1 x1) (or x2 x1)) (and (not x3) (or x3 x1))) (and (and (and x3 x2) (and x0 x4)) (or (or x0 x4) (or x2 x4)))) (and (not (and (and x1 x2) (not x3))) (or (and (not x2) (or x3 x0)) (or (not x0) (not x2)))))))
(assert (= BAV71 (and (or (or (and x1 x1) (or x2 x1)) (and (not x3) (or x3 x1))) (and (and (and x3 x2) (and x0 x4)) (or (or x0 x4) (or x2 x4))))))
(assert (= BAV72 (or (or (and x1 x1) (or x2 x1)) (and (not x3) (or x3 x1)))))
(assert (= BAV73 (or (and x1 x1) (or x2 x1))))
(assert (= BAV74 (and x1 x1)))
(assert (= BAV75 (or x2 x1)))
(assert (= BAV76 (and (not x3) (or x3 x1))))
(assert (= BAV77 (or x3 x1)))
(assert (= BAV78 (and (and (and x3 x2) (and x0 x4)) (or (or x0 x4) (or x2 x4)))))
(assert (= BAV79 (and (and x3 x2) (and x0 x4))))
(assert (= BAV80 (and x3 x2)))
(assert (= BAV81 (and x0 x4)))
(assert (= BAV82 (or (or x0 x4) (or x2 x4))))
(assert (= BAV83 (or x0 x4)))
(assert (= BAV84 (or x2 x4)))
(assert (= BAV85 (and (not (and (and x1 x2) (not x3))) (or (and (not x2) (or x3 x0)) (or (not x0) (not x2))))))
(assert (= BAV86 (and (and x1 x2) (not x3))))
(assert (= BAV87 (and x1 x2)))
(assert (= BAV88 (or (and (not x2) (or x3 x0)) (or (not x0) (not x2)))))
(assert (= BAV89 (and (not x2) (or x3 x0))))
(assert (= BAV90 (or x3 x0)))
(assert (= BAV91 (or (not x0) (not x2))))
(assert (= BAV92 (and (and (and (not (and x3 x3)) (not (not x0))) (or (or (and x0 x1) (not x2)) (not (or x3 x0)))) (or (and (or (and x0 x2) (and x0 x3)) (and (not x3) (or x0 x4))) (and (not (and x2 x1)) (not (not x1)))))))
(assert (= BAV93 (and (and (not (and x3 x3)) (not (not x0))) (or (or (and x0 x1) (not x2)) (not (or x3 x0))))))
(assert (= BAV94 (and (not (and x3 x3)) (not (not x0)))))
(assert (= BAV95 (and x3 x3)))
(assert (= BAV96 (or (or (and x0 x1) (not x2)) (not (or x3 x0)))))
(assert (= BAV97 (or (and x0 x1) (not x2))))
(assert (= BAV98 (and x0 x1)))
(assert (= BAV99 (or x3 x0)))
(assert (= BAV100 (or (and (or (and x0 x2) (and x0 x3)) (and (not x3) (or x0 x4))) (and (not (and x2 x1)) (not (not x1))))))
(assert (= BAV101 (and (or (and x0 x2) (and x0 x3)) (and (not x3) (or x0 x4)))))
(assert (= BAV102 (or (and x0 x2) (and x0 x3))))
(assert (= BAV103 (and x0 x2)))
(assert (= BAV104 (and x0 x3)))
(assert (= BAV105 (and (not x3) (or x0 x4))))
(assert (= BAV106 (or x0 x4)))
(assert (= BAV107 (and (not (and x2 x1)) (not (not x1)))))
(assert (= BAV108 (and x2 x1)))
(assert (= BAV109 (and (not (not (and (not (or (not x4) (and x0 x0))) (or (not (not x0)) (or (and x1 x3) (and x2 x0)))))) (or (and (and (not (or (and x2 x1) (and x4 x1))) (and (not (and x0 x3)) (and (or x3 x2) (and x1 x4)))) (and (and (or (or x0 x1) (not x0)) (and (and x2 x3) (not x2))) (not (not (or x2 x3))))) (and (and (and (and (or x2 x1) (or x1 x4)) (and (and x2 x4) (or x1 x4))) (or (and (and x2 x0) (not x0)) (and (and x3 x1) (not x0)))) (or (not (or (not x4) (or x1 x2))) (and (or (not x2) (not x3)) (and (or x1 x2) (and x1 x1)))))))))
(assert (= BAV110 (and (not (or (not x4) (and x0 x0))) (or (not (not x0)) (or (and x1 x3) (and x2 x0))))))
(assert (= BAV111 (or (not x4) (and x0 x0))))
(assert (= BAV112 (and x0 x0)))
(assert (= BAV113 (or (not (not x0)) (or (and x1 x3) (and x2 x0)))))
(assert (= BAV114 (or (and x1 x3) (and x2 x0))))
(assert (= BAV115 (and x1 x3)))
(assert (= BAV116 (and x2 x0)))
(assert (= BAV117 (or (and (and (not (or (and x2 x1) (and x4 x1))) (and (not (and x0 x3)) (and (or x3 x2) (and x1 x4)))) (and (and (or (or x0 x1) (not x0)) (and (and x2 x3) (not x2))) (not (not (or x2 x3))))) (and (and (and (and (or x2 x1) (or x1 x4)) (and (and x2 x4) (or x1 x4))) (or (and (and x2 x0) (not x0)) (and (and x3 x1) (not x0)))) (or (not (or (not x4) (or x1 x2))) (and (or (not x2) (not x3)) (and (or x1 x2) (and x1 x1))))))))
(assert (= BAV118 (and (and (not (or (and x2 x1) (and x4 x1))) (and (not (and x0 x3)) (and (or x3 x2) (and x1 x4)))) (and (and (or (or x0 x1) (not x0)) (and (and x2 x3) (not x2))) (not (not (or x2 x3)))))))
(assert (= BAV119 (and (not (or (and x2 x1) (and x4 x1))) (and (not (and x0 x3)) (and (or x3 x2) (and x1 x4))))))
(assert (= BAV120 (or (and x2 x1) (and x4 x1))))
(assert (= BAV121 (and x2 x1)))
(assert (= BAV122 (and x4 x1)))
(assert (= BAV123 (and (not (and x0 x3)) (and (or x3 x2) (and x1 x4)))))
(assert (= BAV124 (and x0 x3)))
(assert (= BAV125 (and (or x3 x2) (and x1 x4))))
(assert (= BAV126 (or x3 x2)))
(assert (= BAV127 (and x1 x4)))
(assert (= BAV128 (and (and (or (or x0 x1) (not x0)) (and (and x2 x3) (not x2))) (not (not (or x2 x3))))))
(assert (= BAV129 (and (or (or x0 x1) (not x0)) (and (and x2 x3) (not x2)))))
(assert (= BAV130 (or (or x0 x1) (not x0))))
(assert (= BAV131 (or x0 x1)))
(assert (= BAV132 (and (and x2 x3) (not x2))))
(assert (= BAV133 (and x2 x3)))
(assert (= BAV134 (or x2 x3)))
(assert (= BAV135 (and (and (and (and (or x2 x1) (or x1 x4)) (and (and x2 x4) (or x1 x4))) (or (and (and x2 x0) (not x0)) (and (and x3 x1) (not x0)))) (or (not (or (not x4) (or x1 x2))) (and (or (not x2) (not x3)) (and (or x1 x2) (and x1 x1)))))))
(assert (= BAV136 (and (and (and (or x2 x1) (or x1 x4)) (and (and x2 x4) (or x1 x4))) (or (and (and x2 x0) (not x0)) (and (and x3 x1) (not x0))))))
(assert (= BAV137 (and (and (or x2 x1) (or x1 x4)) (and (and x2 x4) (or x1 x4)))))
(assert (= BAV138 (and (or x2 x1) (or x1 x4))))
(assert (= BAV139 (or x2 x1)))
(assert (= BAV140 (or x1 x4)))
(assert (= BAV141 (and (and x2 x4) (or x1 x4))))
(assert (= BAV142 (and x2 x4)))
(assert (= BAV143 (or x1 x4)))
(assert (= BAV144 (or (and (and x2 x0) (not x0)) (and (and x3 x1) (not x0)))))
(assert (= BAV145 (and (and x2 x0) (not x0))))
(assert (= BAV146 (and x2 x0)))
(assert (= BAV147 (and (and x3 x1) (not x0))))
(assert (= BAV148 (and x3 x1)))
(assert (= BAV149 (or (not (or (not x4) (or x1 x2))) (and (or (not x2) (not x3)) (and (or x1 x2) (and x1 x1))))))
(assert (= BAV150 (or (not x4) (or x1 x2))))
(assert (= BAV151 (or x1 x2)))
(assert (= BAV152 (and (or (not x2) (not x3)) (and (or x1 x2) (and x1 x1)))))
(assert (= BAV153 (or (not x2) (not x3))))
(assert (= BAV154 (and (or x1 x2) (and x1 x1))))
(assert (= BAV155 (or x1 x2)))
(assert (= BAV156 (and x1 x1)))
(assert (= BAV157 (or (not (and (not (or (and (or x1 x0) (not x1)) (not (and x1 x3)))) (or (or (not (not x2)) (and (and x3 x3) (not x1))) (or (or (or x4 x3) (not x3)) (not (not x4)))))) (or (and (not (not (or (and x3 x3) (or x3 x0)))) (not (or (or (or x2 x4) (and x2 x1)) (or (not x2) (not x0))))) (and (not (or (and (not x1) (not x1)) (not (and x3 x0)))) (or (and (not (not x4)) (not (not x2))) (or (not (not x0)) (and (not x4) (or x2 x0)))))))))
(assert (= BAV158 (and (not (or (and (or x1 x0) (not x1)) (not (and x1 x3)))) (or (or (not (not x2)) (and (and x3 x3) (not x1))) (or (or (or x4 x3) (not x3)) (not (not x4)))))))
(assert (= BAV159 (or (and (or x1 x0) (not x1)) (not (and x1 x3)))))
(assert (= BAV160 (and (or x1 x0) (not x1))))
(assert (= BAV161 (or x1 x0)))
(assert (= BAV162 (and x1 x3)))
(assert (= BAV163 (or (or (not (not x2)) (and (and x3 x3) (not x1))) (or (or (or x4 x3) (not x3)) (not (not x4))))))
(assert (= BAV164 (or (not (not x2)) (and (and x3 x3) (not x1)))))
(assert (= BAV165 (and (and x3 x3) (not x1))))
(assert (= BAV166 (and x3 x3)))
(assert (= BAV167 (or (or (or x4 x3) (not x3)) (not (not x4)))))
(assert (= BAV168 (or (or x4 x3) (not x3))))
(assert (= BAV169 (or x4 x3)))
(assert (= BAV170 (or (and (not (not (or (and x3 x3) (or x3 x0)))) (not (or (or (or x2 x4) (and x2 x1)) (or (not x2) (not x0))))) (and (not (or (and (not x1) (not x1)) (not (and x3 x0)))) (or (and (not (not x4)) (not (not x2))) (or (not (not x0)) (and (not x4) (or x2 x0))))))))
(assert (= BAV171 (and (not (not (or (and x3 x3) (or x3 x0)))) (not (or (or (or x2 x4) (and x2 x1)) (or (not x2) (not x0)))))))
(assert (= BAV172 (or (and x3 x3) (or x3 x0))))
(assert (= BAV173 (and x3 x3)))
(assert (= BAV174 (or x3 x0)))
(assert (= BAV175 (or (or (or x2 x4) (and x2 x1)) (or (not x2) (not x0)))))
(assert (= BAV176 (or (or x2 x4) (and x2 x1))))
(assert (= BAV177 (or x2 x4)))
(assert (= BAV178 (and x2 x1)))
(assert (= BAV179 (or (not x2) (not x0))))
(assert (= BAV180 (and (not (or (and (not x1) (not x1)) (not (and x3 x0)))) (or (and (not (not x4)) (not (not x2))) (or (not (not x0)) (and (not x4) (or x2 x0)))))))
(assert (= BAV181 (or (and (not x1) (not x1)) (not (and x3 x0)))))
(assert (= BAV182 (and (not x1) (not x1))))
(assert (= BAV183 (and x3 x0)))
(assert (= BAV184 (or (and (not (not x4)) (not (not x2))) (or (not (not x0)) (and (not x4) (or x2 x0))))))
(assert (= BAV185 (and (not (not x4)) (not (not x2)))))
(assert (= BAV186 (or (not (not x0)) (and (not x4) (or x2 x0)))))
(assert (= BAV187 (and (not x4) (or x2 x0))))
(assert (= BAV188 (or x2 x0)))
(assert (= BAV189 (and x4 x0)))
(assert (= BAV190 (or x0 x2)))
(assert (= BAV191 (and (and (not x4) (not x2)) (not (or x1 x2)))))
(assert (= BAV192 (and (not x4) (not x2))))
(assert (= BAV193 (or x1 x2)))
(check-sat)
(push 1)
(check-sat)
(pop 1)
(check-sat)
(push 1)
(check-sat)
(push 1)
(assert (or (not (and (not (or (and (or x1 x0) (not x1)) (not (and x1 x3)))) (or (or (not (not x2)) (and (and x3 x3) (not x1))) (or (or (or x4 x3) (not x3)) (not (not x4)))))) (or (and (not (not (or (and x3 x3) (or x3 x0)))) (not (or (or (or x2 x4) (and x2 x1)) (or (not x2) (not x0))))) (and (not (or (and (not x1) (not x1)) (not (and x3 x0)))) (or (and (not (not x4)) (not (not x2))) (or (not (not x0)) (and (not x4) (or x2 x0))))))))
(check-sat)
(push 1)
(check-sat)
(pop 1)
(check-sat)
(pop 1)
(assert (and x4 x0))
(check-sat)
(push 1)
(check-sat)
(pop 1)
(assert (not x3))
(assert (not (or x0 x2)))
(check-sat)
(pop 1)
(assert (and (and (not x4) (not x2)) (not (or x1 x2))))
(check-sat)